24
14
3 15 20 9 21 5 17 13 19 4 7 0 18 1 12
17 6 20 9 21 15 2 4
11 13 5 20
18 0 4 10 19 13 6 8 21 3 23 7 16
23 21 10 22 15 13 9
1 13 8 12 17 3 18 10 15 7 22 6 14 20 9 11 5 21 19 4 0 16 2
14 13 9 22 4 1 18 20 23 17 21 11
6 21 3 0 7 15 19
9 14 15 7 6 19 4 12 0 13 23 21 2 18 17 5
21 1 16 17 4 12 13 0 9 18 19 20 7 5 23 11 15 14 10 8 2
19 3 10 5 13 20 23 18 12 14 17 22
5 9
8 19 10 21 4 1 3
7 21 1 12 17 15 6 0 8 9 22 23 14 18 11 4 13 5 20 19 16 2 10 3
